% File represents an instance of a Composite Structure problem to be solved by a CP framework
% Created on 2025-03-26 10:41:24.870
T = 50;
n = 16;
m = 24;
edges = [(1, 2),
(5, 6),
(9, 10),
(13, 14),
(2, 3),
(7, 6),
(11, 10),
(15, 14),
(3, 4),
(7, 8),
(11, 12),
(15, 16),
(1, 5),
(5, 9),
(9, 13),
(2, 6),
(6, 10),
(10, 14),
(7, 3),
(7, 11),
(11, 15),
(8, 4),
(8, 12),
(12, 16)];
counts = [|8, 12, 8, 22,
|8, 10, 8, 18,
|8, 6, 8, 16,
|6, 4, 6, 16,
|8, 8, 8, 20,
|8, 6, 8, 18,
|8, 8, 8, 18,
|8, 4, 8, 18,
|6, 8, 6, 18,
|6, 6, 6, 16,
|6, 8, 6, 18,
|6, 4, 6, 16,
|6, 6, 6, 16,
|6, 4, 6, 14,
|6, 6, 6, 14,
|6, 2, 6, 12|];
